min: 11.3 * x21 + 43.0 * x31 + 44.1 * x41 + 49.3 * x51 + 50.8 * x61 + 60.1 * x71 + 11.3 * x12 + 42.2 * x32 + 45.0 * x42 + 51.5 * x52 + 47.5 * x62 + 57.9 * x72 + 43.0 * x13 + 42.2 * x23 + 6.5 * x43 + 14.6 * x53 + 12.2 * x63 + 17.7 * x73 + 44.1 * x14 + 45.0 * x24 + 6.5 * x34 + 8.3 * x54 + 17.7 * x64 + 20.1 * x74 + 49.3 * x15 + 51.5 * x25 + 14.6 * x35 + 8.3 * x45 + 24.2 * x65 + 23.0 * x75 + 50.8 * x16 + 47.5 * x26 + 12.2 * x36 + 17.7 * x46 + 24.2 * x56 + 11.2 * x76 + 60.1 * x17 + 57.9 * x27 + 17.7 * x37 + 20.1 * x47 + 23.0 * x57 + 11.2 * x67 + Te1 + Te2 + Te3 + Te4 + Te5 + Te6 + Te7 + 7.9 + 8.5 + 6.1 + 4.0 + 2.4 + 5.2 + 2.4;

x12 + x13 + x14 + x15 + x16 + x17 = 1;
x21 + x23 + x24 + x25 + x26 + x27 = 1;
x31 + x32 + x34 + x35 + x36 + x37 = 1;
x41 + x42 + x43 + x45 + x46 + x47 = 1;
x51 + x52 + x53 + x54 + x56 + x57 = 1;
x61 + x62 + x63 + x64 + x65 + x67 = 1;
x71 + x72 + x73 + x74 + x75 + x76 = 1;
x21 + x31 + x41 + x51 + x61 + x71 = 1;
x12 + x32 + x42 + x52 + x62 + x72 = 1;
x13 + x23 + x43 + x53 + x63 + x73 = 1;
x14 + x24 + x34 + x54 + x64 + x74 = 1;
x15 + x25 + x35 + x45 + x65 + x75 = 1;
x16 + x26 + x36 + x46 + x56 + x76 = 1;
x17 + x27 + x37 + x47 + x57 + x67 = 1;
x12 + x21 <= 1;
x13 + x31 <= 1;
x14 + x41 <= 1;
x15 + x51 <= 1;
x16 + x61 <= 1;
x17 + x71 <= 1;
x23 + x32 <= 1;
x24 + x42 <= 1;
x25 + x52 <= 1;
x26 + x62 <= 1;
x27 + x72 <= 1;
x34 + x43 <= 1;
x35 + x53 <= 1;
x36 + x63 <= 1;
x37 + x73 <= 1;
x45 + x54 <= 1;
x46 + x64 <= 1;
x47 + x74 <= 1;
x56 + x65 <= 1;
x57 + x75 <= 1;
x67 + x76 <= 1;
b2 >= b1 + 11.3 + Te1 + 7.9 - 999999999 + 999999999 * x12;
b3 >= b1 + 43.0 + Te1 + 7.9 - 999999999 + 999999999 * x13;
b4 >= b1 + 44.1 + Te1 + 7.9 - 999999999 + 999999999 * x14;
b5 >= b1 + 49.3 + Te1 + 7.9 - 999999999 + 999999999 * x15;
b6 >= b1 + 50.8 + Te1 + 7.9 - 999999999 + 999999999 * x16;
b7 >= b1 + 60.1 + Te1 + 7.9 - 999999999 + 999999999 * x17;
b3 >= b2 + 42.2 + Te2 + 8.5 - 999999999 + 999999999 * x23;
b4 >= b2 + 45.0 + Te2 + 8.5 - 999999999 + 999999999 * x24;
b5 >= b2 + 51.5 + Te2 + 8.5 - 999999999 + 999999999 * x25;
b6 >= b2 + 47.5 + Te2 + 8.5 - 999999999 + 999999999 * x26;
b7 >= b2 + 57.9 + Te2 + 8.5 - 999999999 + 999999999 * x27;
b2 >= b3 + 42.2 + Te3 + 6.1 - 999999999 + 999999999 * x32;
b4 >= b3 + 6.5 + Te3 + 6.1 - 999999999 + 999999999 * x34;
b5 >= b3 + 14.6 + Te3 + 6.1 - 999999999 + 999999999 * x35;
b6 >= b3 + 12.2 + Te3 + 6.1 - 999999999 + 999999999 * x36;
b7 >= b3 + 17.7 + Te3 + 6.1 - 999999999 + 999999999 * x37;
b2 >= b4 + 45.0 + Te4 + 4.0 - 999999999 + 999999999 * x42;
b3 >= b4 + 6.5 + Te4 + 4.0 - 999999999 + 999999999 * x43;
b5 >= b4 + 8.3 + Te4 + 4.0 - 999999999 + 999999999 * x45;
b6 >= b4 + 17.7 + Te4 + 4.0 - 999999999 + 999999999 * x46;
b7 >= b4 + 20.1 + Te4 + 4.0 - 999999999 + 999999999 * x47;
b2 >= b5 + 51.5 + Te5 + 2.4 - 999999999 + 999999999 * x52;
b3 >= b5 + 14.6 + Te5 + 2.4 - 999999999 + 999999999 * x53;
b4 >= b5 + 8.3 + Te5 + 2.4 - 999999999 + 999999999 * x54;
b6 >= b5 + 24.2 + Te5 + 2.4 - 999999999 + 999999999 * x56;
b7 >= b5 + 23.0 + Te5 + 2.4 - 999999999 + 999999999 * x57;
b2 >= b6 + 47.5 + Te6 + 5.2 - 999999999 + 999999999 * x62;
b3 >= b6 + 12.2 + Te6 + 5.2 - 999999999 + 999999999 * x63;
b4 >= b6 + 17.7 + Te6 + 5.2 - 999999999 + 999999999 * x64;
b5 >= b6 + 24.2 + Te6 + 5.2 - 999999999 + 999999999 * x65;
b7 >= b6 + 11.2 + Te6 + 5.2 - 999999999 + 999999999 * x67;
b2 >= b7 + 57.9 + Te7 + 2.4 - 999999999 + 999999999 * x72;
b3 >= b7 + 17.7 + Te7 + 2.4 - 999999999 + 999999999 * x73;
b4 >= b7 + 20.1 + Te7 + 2.4 - 999999999 + 999999999 * x74;
b5 >= b7 + 23.0 + Te7 + 2.4 - 999999999 + 999999999 * x75;
b6 >= b7 + 11.2 + Te7 + 2.4 - 999999999 + 999999999 * x76;
0.0 <= b1 + Te1;
130.0 <= b2 + Te2;
45.5 <= b3 + Te3;
121.0 <= b4 + Te4;
70.0 <= b5 + Te5;
90.8 <= b6 + Te6;
200.0 <= b7 + Te7;
b1 <= 0.0;
b2 <= 180.0;
b3 <= 55.5;
b4 <= 122.0;
b5 <= 75.3;
b6 <= 101.5;
b7 <= 250.0;

bin x12, x13, x14, x15, x16, x17, x21, x23, x24, x25, x26, x27, x31, x32, x34, x35, x36, x37, x41, x42, x43, x45, x46, x47, x51, x52, x53, x54, x56, x57, x61, x62, x63, x64, x65, x67, x71, x72, x73, x74, x75, x76;